CMD:
./solvers/bin/cadical --plain --no-reduce -t 1600 ./data/cnfs//qspiflash_qflexpress_divfive-p075/qspiflash_qflexpress_divfive-p075.93.cnf

c --- [ banner ] -------------------------------------------------------------
c 
c CaDiCaL SAT Solver
c Copyright (c) 2016-2024
c A. Biere, M. Fleury, N. Froleyks, K. Fazekas, F. Pollitt, T. Faller
c JKU Linz, University of Freiburg, TU Wien
c 
c Version 2.1.3 5296d3d2a9bf48c154ab2acb5e44625776d821bf
c g++ (Gentoo 12.3.1_p20230526 p2) 12.3.1 20230526 -Wall -Wextra -O3 -DNDEBUG
c Sat Aug 9 07:26:21 PDT 2025 Linux cedar2.int.cedar.computecanada.ca 5.14.0-362.24.2.el9_3.x86_64 x86_64
c 
c --- [ limit ] --------------------------------------------------------------
c 
c setting time limit to 1600 seconds real time (due to '-t 1600')
c 
c --- [ parsing input ] ------------------------------------------------------
c 
c reading DIMACS file from './data/cnfs//qspiflash_qflexpress_divfive-p075/qspiflash_qflexpress_divfive-p075.93.cnf'
c opening file to read './data/cnfs//qspiflash_qflexpress_divfive-p075/qspiflash_qflexpress_divfive-p075.93.cnf'
c found 'p cnf 247013 720606' header
c parsed 720606 clauses in 0.12 seconds process time
c 
c --- [ options ] ------------------------------------------------------------
c 
c   --compact=false                (different from default 'true')
c   --decompose=false              (different from default 'true')
c   --deduplicate=false            (different from default 'true')
c   --elim=false                   (different from default 'true')
c   --probe=false                  (different from default 'true')
c   --reduce=false                 (different from default 'true')
c   --subsume=false                (different from default 'true')
c   --ternary=false                (different from default 'true')
c   --transred=false               (different from default 'true')
c   --vivify=false                 (different from default 'true')
c 
c --- [ solving ] ------------------------------------------------------------
c 
c time measured in process time since initialization
c 
c  seconds   reductions  redundant  irredundant
c          MB    restarts       trail       variables
c           level   conflicts       glue          remaining
c 
c *  0.12 114  0 0   0    0    0  0% 0 703947 235443 95%
c {  0.17 118  0 0   0    0    0  0% 0 703947 235443 95%
c i  0.17 118 102 0   0  170  139  6% 2 703947 235038 95%
c i  0.22 119 175 0   0  262  230  9% 3 703947 234647 95%
c i  0.23 119 175 0   2  268  235  9% 3 703947 233768 95%
c i  0.23 119 172 0   4  272  238  9% 3 703947 233299 94%
c i  0.26 119 170 0   9  291  254 11% 3 703947 232831 94%
c i  0.27 119 169 0   9  292  254 11% 3 703947 232830 94%
c i  0.27 119 169 0   9  293  254 11% 3 703947 232829 94%
c i  0.27 119 168 0  10  295  255 11% 3 703947 232828 94%
c i  0.27 119 167 0  11  297  256 11% 2 703947 232827 94%
c i  0.27 119 166 0  11  298  256 11% 2 703947 232826 94%
c i  0.27 119 166 0  11  299  256 11% 2 703947 232825 94%
c i  0.27 119 165 0  12  300  256 11% 2 703947 232824 94%
c i  0.27 119 163 0  12  306  259 11% 2 703947 232459 94%
c i  0.31 119 136 0  13  504  453 16% 2 703947 232209 94%
c i  0.33 120 132 0  17  563  508 18% 2 703947 232208 94%
c i  0.34 120 123 0  28  614  554 17% 2 703947 232207 94%
c i  0.35 120 121 0  31  640  578 18% 2 703947 232206 94%
c i  0.35 120 120 0  33  648  584 17% 2 703947 232205 94%
c 
c  seconds    reductions  redundant  irredundant
c          MB     restarts       trail       variables
c            level   conflicts       glue          remaining
c 
c i  0.38 120 116 0  41  710  641 17% 2 703947 232075 94%
c i  0.38 120 117 0  41  711  641 17% 2 703947 232027 94%
c i  0.44 120 114 0  65  832  745 18% 3 703947 231769 94%
c i  0.44 120 112 0  69  842  754 17% 2 703947 231768 94%
c i  0.45 120 103 0  71  936  840 16% 2 703947 231754 94%
c i  0.45 120 103 0  71  938  840 16% 2 703947 231750 94%
c }  0.45 120 97 0  82 1002  896 16% 3 703947 231750 94%
c [  0.45 120  0 0  82 1002  896  0% 0 703947 231750 94%
c O  0.49 120 1184 0  82 1003  897 91% 1 703947 231750 94%
c i  0.49 120 1178 0  82 1007  900 89% 1 703947 231746 94%
c i  0.50 120 1162 0  82 1055  945 89% 6 703947 231745 94%
c i  0.51 120 1154 0  82 1092  973 88% 5 703947 231741 94%
c i  0.57 120 1112 0  82 1545 1392 84% 7 703947 231740 94%
c i  0.57 120 1112 0  82 1547 1393 84% 7 703947 231739 94%
c i  0.59 120 1106 0  82 1652 1485 84% 7 703947 231738 94%
c ]  0.83 121 645 0  83 3003 2672 58% 5 703947 231738 94%
c {  0.83 121 97 0  83 3003 2672 16% 3 703947 231738 94%
c F  0.84 121 97 0  84 3004 2673 16% 3 703947 231738 94%
c i  0.84 121 94 0  91 3046 2711 16% 3 703947 231614 94%
c i  0.84 121 93 0  92 3054 2714 16% 3 703947 231608 94%
c 
c  seconds   reductions  redundant  irredundant
c          MB    restarts       trail       variables
c           level   conflicts       glue          remaining
c 
c i  0.86 121 90 0 102 3105 2752 15% 3 703947 231604 94%
c i  0.86 121 89 0 105 3118 2761 15% 3 703947 231454 94%
c i  0.95 121 77 0 173 3385 2998 15% 3 703947 231449 94%
c i  1.06 121 84 0 224 3842 3411 15% 3 703947 231448 94%
... skipped 13 lines ...
c i  1.67 122 62 0 502 5982 5298 15% 3 703947 230857 93%
c #  1.68 122 62 0 504 6005 5319 15% 4 703947 230857 93%
c i  1.68 122 62 0 506 6026 5339 15% 3 703947 230853 93%
c 
c  seconds   reductions  redundant  irredundant
c          MB    restarts       trail       variables
c           level   conflicts       glue          remaining
c 
c i  1.68 122 62 0 506 6035 5345 15% 3 703947 230852 93%
c i  1.69 122 61 0 509 6079 5381 15% 4 703947 230837 93%
c i  1.71 122 61 0 517 6197 5490 15% 3 703947 230836 93%
c i  1.71 122 63 0 517 6272 5558 15% 3 703947 230835 93%
c i  1.72 122 65 0 517 6376 5652 16% 3 703947 230834 93%
c i  1.75 122 67 0 528 6553 5814 17% 3 703947 230833 93%
c i  1.75 122 68 0 528 6585 5841 17% 3 703947 230832 93%
c i  1.78 122 68 0 530 6698 5944 17% 3 703947 230744 93%
c i  1.83 122 68 0 536 6745 5981 17% 3 703947 230608 93%
c i  1.84 122 68 0 538 6758 5993 17% 3 703947 230359 93%
c i  1.84 122 68 0 539 6759 5993 17% 3 703947 230358 93%
c }  1.89 122 68 0 541 7006 6220 18% 3 703947 230358 93%
c [  1.89 122 645 0 541 7006 6220 58% 5 703947 230358 93%
c i  1.98 122 509 0 542 7728 6881 48% 6 703947 230357 93%
c i  2.00 122 483 0 542 7920 7052 46% 6 703947 230356 93%
c i  2.04 122 468 0 542 8065 7175 45% 6 703947 230350 93%
c i  2.05 122 466 0 542 8088 7195 45% 6 703947 230193 93%
c i  2.11 122 451 0 542 8259 7329 44% 6 703947 230175 93%
c i  2.34 122 375 0 542 9158 8106 41% 6 703947 229934 93%
c i  2.36 122 369 0 542 9248 8193 40% 6 703947 229929 93%
c 
c  seconds    reductions   redundant  irredundant
c          MB     restarts        trail       variables
c            level    conflicts       glue          remaining
c 
c I  2.53 122 334 0 543 10007 8865 38% 6 703947 229921 93%
c i  2.56 122 323 0 543 10188 9020 37% 6 703947 229908 93%
c i  2.56 122 323 0 543 10193 9023 37% 6 703947 229900 93%
c i  2.56 122 323 0 543 10199 9027 37% 6 703947 229896 93%
c i  2.58 122 320 0 543 10268 9074 37% 6 703947 229470 93%
c i  2.61 122 319 0 543 10299 9100 37% 6 703947 229458 93%
c i  2.67 122 309 0 544 10493 9262 37% 6 703947 229386 93%
c i  3.14 123 248 0 545 11956 10558 34% 6 703947 229374 93%
c i  3.32 123 233 0 545 12441 10970 34% 7 703947 229370 93%
c i  3.32 123 233 0 545 12445 10971 34% 7 703947 229366 93%
c i  3.43 123 227 0 545 12637 11104 33% 7 703947 229362 93%
c i  3.43 123 227 0 545 12642 11106 33% 7 703947 229358 93%
c i  3.44 123 227 0 545 12649 11110 33% 7 703947 223118 90%
c ]  3.44 123 227 0 545 12652 11110 33% 7 703947 215048 87%
c 0  3.44 123 227 0 545 12652 11110 33% 7 703947 215048 87%
c 
c --- [ result ] -------------------------------------------------------------
c 
s UNSATISFIABLE
c 
c --- [ run-time profiling ] -------------------------------------------------
c 
c process time taken by individual solving procedures
c (percentage relative to process time for solving)
c 
c         3.32  100.00% search
c         1.93   58.21% stable
c         1.34   40.17% unstable
c         0.12    3.50% parse
c         0.05    1.61% lucky
c         0.00    0.00% simplify
c   =================================
c         3.32   96.60% solve
c 
c last line shows process time for solving
c (percentage relative to total process time)
c 
c --- [ statistics ] ---------------------------------------------------------
c 
c chronological:              5476        43.28 %  of conflicts
c conflicts:                 12652      3806.94    per second
c decisions:                 50906     15317.42    per second
c fixed:                     31964        12.94 %  of all variables
c learned:                   12073        95.42 %  per conflict
c learned_lits:             267916       100.00 %  learned literals
c minimized:                     0         0.00 %  learned literals
c shrunken:                  50501        18.85 %  learned literals
c minishrunken:              43199        16.12 %  learned literals
c otfs:                        171         1.35 %  of conflict
c propagations:           42492504        12.79 M  per second
c rephased:                      4      3163.00    interval
c restarts:                    545        23.21    interval
c stabilizing:                   2        60.44 %  of conflicts
c subsumed:                    877         0.12 %  of all clauses
c strengthened:                171         0.02 %  of all clauses
c 
c seconds are measured in process time for solving
c 
c --- [ resources ] ----------------------------------------------------------
c 
c total process time since initialization:         3.44    seconds
c total real time since initialization:            3.46    seconds
c maximum resident set size of process:          121.10    MB
c 
c --- [ shutting down ] ------------------------------------------------------
c 
c exit 20
